r = [
0,94,73,33,24,166,124,56,36,40,49,40,21,111,92,160,3,45,133,46,159,104,158,5,50,143,0
];
p = [
0,22,15,25,1,15,9,2,10,14,21,29,25,27,4,10,12,17,17,27,17,3,12,3,5,16,0
];
e = [
0,7,2,4,1,10,13,12,19,3,6,5,7,5,10,11,13,15,16,18,19,8,4,1,5,3,0
];
d = [
0,298,171,240,127,270,367,241,138,275,278,293,136,252,254,406,189,160,388,255,355,294,339,238,255,309,411
];
d_bar = [
0,309,179,253,128,278,372,242,143,282,289,308,149,266,256,411,195,169,397,269,364,296,345,240,258,317,411
];
w = [
0,0.636363636,0.25,0.307692308,1,1.25,2.6,12,3.8,0.428571429,0.545454545,0.333333333,0.538461538,0.357142857,5,2.2,2.166666667,1.666666667,1.777777778,1.285714286,2.111111111,4,0.666666667,0.5,1.666666667,0.375,0
];
